language Essence 1.3

letting graph be
        function((1, 2) --> red, (1, 3) --> red, (1, 4) --> red, (2, 1) --> red, (2, 3) --> blue, (2, 4) --> blue,
                 (3, 1) --> red, (3, 2) --> blue, (3, 4) --> blue, (4, 1) --> red, (4, 2) --> blue, (4, 3) --> blue)
